Route #1: 20 1 56 24 37 22 68 60 95 4 69 53 81 59 77 57 100 116 54 107 61
Route #2: 119 80 29 32 91 21 43 76 113 64 109 42 78 45 70 55 93 16 84 96 71
Route #3: 23 36 115 14 58 83 15 44 18 66 117 5 41 17 103 9 99 13 98 2 49
Route #4: 74 110 65 48 86 106 7 97 19 75 46 108 26 89 51 104 63 105 47 101 85
Route #5: 10 3 112 62 87 102 72 111 27 34 11 35 92 6 40 90 114 8 39 82 28
Route #6: 50 33 79 12 118 30 67 25 73 31 38 94 52 88
Cost 16290
